(set-logic HORN)
(declare-fun assign_275_35_8_abs0 (Int Int Int Int Int) Bool)
(declare-fun assert_266_34_8_abs0 (Int Int Int Int Int) Bool)
(declare-fun assert_249_33_8_abs0 (Int Int Int Int Int) Bool)
(declare-fun while_278_31_6_abs0 (Int Int Int Int Int) Bool)
(declare-fun assign_206_30_6_abs0 (Int Int Int Int Int) Bool)
(declare-fun assign_197_26_8_abs0 (Int Int Int Int Int) Bool)
(declare-fun arrayassign_188_25_8_abs0 (Int Int Int Int Int) Bool)
(declare-fun assert_171_24_8_abs0 (Int Int Int Int Int) Bool)
(declare-fun while_200_22_6_abs0 (Int Int Int Int Int) Bool)
(declare-fun assign_128_21_6_abs0 (Int Int Int Int Int) Bool)
(declare-fun assign_119_17_8_abs0 (Int Int Int Int Int) Bool)
(declare-fun arrayassign_110_16_8_abs0 (Int Int Int Int Int) Bool)
(declare-fun assign_97_15_8_abs0 (Int Int Int Int Int) Bool)
(declare-fun assert_85_14_8_abs0 (Int Int Int Int Int) Bool)
(declare-fun while_122_12_6_abs0 (Int Int Int Int Int) Bool)
(declare-fun assign_42_11_6_abs0 (Int Int Int Int Int) Bool)
(declare-fun assign_36_8_6_abs0 (Int Int Int Int Int) Bool)
(declare-fun end_abs0 (Int Int Int Int Int) Bool)
(declare-fun start_abs0 (Int Int Int Int Int) Bool)
(assert (forall ((v Int) (N Int) (i Int) (vabs_f_f Int) (a_select Int)) (start_abs0 vabs_f_f a_select v N i)))
(assert (forall ((i Int) (N Int) (v Int) (vabs_0_f_f Int) (a_select Int)) (=> (start_abs0 vabs_0_f_f a_select v N i) (assign_36_8_6_abs0 vabs_0_f_f a_select v N i))))
(assert (forall ((rnd Int) (i Int) (N Int) (v Int) (vabs_0_f_f Int) (a_select Int)) (=> (assign_36_8_6_abs0 vabs_0_f_f a_select v N i) (assign_42_11_6_abs0 vabs_0_f_f a_select v rnd i))))
(assert (forall ((i Int) (N Int) (v Int) (vabs_0_f_f Int) (a_select Int)) (=> (assign_42_11_6_abs0 vabs_0_f_f a_select v N i) (while_122_12_6_abs0 vabs_0_f_f a_select v N 0))))
(assert (forall ((v Int) (N Int) (i Int) (vabs_0_f_f Int) (a_select Int)) (=> (and (while_122_12_6_abs0 vabs_0_f_f a_select v N i) (< i N)) (assert_85_14_8_abs0 vabs_0_f_f a_select v N i))))
(assert (forall ((v Int) (N Int) (i Int) (vabs_0_f_f Int) (a_select Int)) (=> (and (while_122_12_6_abs0 vabs_0_f_f a_select v N i) (not (< i N))) (assign_128_21_6_abs0 vabs_0_f_f a_select v N i))))
(assert (forall ((k Int) (i Int) (N Int) (v Int) (a_select Int)) (=> (and (assert_85_14_8_abs0 k a_select v N i) (<= 0 k) (< k i)) (= (mod a_select 2) 0))))
(assert (forall ((i Int) (N Int) (v Int) (vabs_0_f_f Int) (a_select Int)) (=> (assert_85_14_8_abs0 vabs_0_f_f a_select v N i) (assign_97_15_8_abs0 vabs_0_f_f a_select v N i))))
(assert (forall ((rnd Int) (i Int) (N Int) (v Int) (vabs_0_f_f Int) (a_select Int)) (=> (assign_97_15_8_abs0 vabs_0_f_f a_select v N i) (arrayassign_110_16_8_abs0 vabs_0_f_f a_select rnd N i))))
(assert (forall ((i Int) (N Int) (v Int) (vabs_0_f_f Int) (a_select Int)) (=> (arrayassign_110_16_8_abs0 vabs_0_f_f a_select v N i) (assign_119_17_8_abs0 vabs_0_f_f (ite (= i vabs_0_f_f) (* v 2) a_select) v N i))))
(assert (forall ((i Int) (N Int) (v Int) (vabs_0_f_f Int) (a_select Int)) (=> (assign_119_17_8_abs0 vabs_0_f_f a_select v N i) (while_122_12_6_abs0 vabs_0_f_f a_select v N (+ i 1)))))
(assert (forall ((i Int) (N Int) (v Int) (vabs_0_f_f Int) (a_select Int)) (=> (assign_128_21_6_abs0 vabs_0_f_f a_select v N i) (while_200_22_6_abs0 vabs_0_f_f a_select v N 0))))
(assert (forall ((v Int) (N Int) (i Int) (vabs_0_f_f Int) (a_select Int)) (=> (and (while_200_22_6_abs0 vabs_0_f_f a_select v N i) (< i N)) (assert_171_24_8_abs0 vabs_0_f_f a_select v N i))))
(assert (forall ((v Int) (N Int) (i Int) (vabs_0_f_f Int) (a_select Int)) (=> (and (while_200_22_6_abs0 vabs_0_f_f a_select v N i) (not (< i N))) (assign_206_30_6_abs0 vabs_0_f_f a_select v N i))))
(assert (forall ((k Int) (i Int) (N Int) (v Int) (a_select Int)) (=> (and (assert_171_24_8_abs0 k a_select v N i) (<= 0 k) (< k i)) (= (mod a_select 2) 1))))
(assert (forall ((i Int) (N Int) (v Int) (vabs_0_f_f Int) (a_select Int)) (=> (assert_171_24_8_abs0 vabs_0_f_f a_select v N i) (arrayassign_188_25_8_abs0 vabs_0_f_f a_select v N i))))
(assert (forall ((i Int) (N Int) (v Int) (vabs_0_f_f Int) (a_select_0 Int) (a_select Int)) (=> (and (=> (= i vabs_0_f_f) (= a_select a_select_0)) (arrayassign_188_25_8_abs0 vabs_0_f_f a_select v N i) (arrayassign_188_25_8_abs0 i a_select_0 v N i)) (assign_197_26_8_abs0 vabs_0_f_f (ite (= i vabs_0_f_f) (+ a_select_0 1) a_select) v N i))))
(assert (forall ((i Int) (N Int) (v Int) (vabs_0_f_f Int) (a_select Int)) (=> (assign_197_26_8_abs0 vabs_0_f_f a_select v N i) (while_200_22_6_abs0 vabs_0_f_f a_select v N (+ i 1)))))
(assert (forall ((i Int) (N Int) (v Int) (vabs_0_f_f Int) (a_select Int)) (=> (assign_206_30_6_abs0 vabs_0_f_f a_select v N i) (while_278_31_6_abs0 vabs_0_f_f a_select v N 0))))
(assert (forall ((v Int) (N Int) (i Int) (vabs_0_f_f Int) (a_select Int)) (=> (and (while_278_31_6_abs0 vabs_0_f_f a_select v N i) (< i N)) (assert_249_33_8_abs0 vabs_0_f_f a_select v N i))))
(assert (forall ((v Int) (N Int) (i Int) (vabs_0_f_f Int) (a_select Int)) (=> (and (while_278_31_6_abs0 vabs_0_f_f a_select v N i) (not (< i N))) (end_abs0 vabs_0_f_f a_select v N i))))
(assert (forall ((k Int) (i Int) (N Int) (v Int) (a_select Int)) (=> (and (assert_249_33_8_abs0 k a_select v N i) (<= 0 k) (< k N)) (= (mod a_select 2) 1))))
(assert (forall ((i Int) (N Int) (v Int) (vabs_0_f_f Int) (a_select Int)) (=> (assert_249_33_8_abs0 vabs_0_f_f a_select v N i) (assert_266_34_8_abs0 vabs_0_f_f a_select v N i))))
(assert (forall ((i Int) (N Int) (v Int) (a_select Int)) (=> (assert_266_34_8_abs0 i a_select v N i) (= (mod a_select 2) 1))))
(assert (forall ((i Int) (N Int) (v Int) (vabs_0_f_f Int) (a_select Int)) (=> (assert_266_34_8_abs0 vabs_0_f_f a_select v N i) (assign_275_35_8_abs0 vabs_0_f_f a_select v N i))))
(assert (forall ((i Int) (N Int) (v Int) (vabs_0_f_f Int) (a_select Int)) (=> (assign_275_35_8_abs0 vabs_0_f_f a_select v N i) (while_278_31_6_abs0 vabs_0_f_f a_select v N (+ i 1)))))
(check-sat)